10
0 92 95 45 5 18 36 72 70 86 
50 0 54 39 65 71 38 74 66 8 
57 79 0 31 73 53 51 7 36 44 
48 76 44 0 38 79 54 31 29 64 
4 94 34 99 0 31 100 91 92 49 
63 18 89 22 92 0 34 78 31 83 
77 83 24 93 58 65 0 15 72 46 
95 83 73 1 76 35 64 0 63 80 
17 56 62 93 35 18 36 26 0 90 
73 31 21 47 44 82 19 30 62 0 
